NAME : ConvertedInstance
TYPE : CVRP
DIMENSION : 241
CAPACITY : 200
NODE_COORD_SECTION
1 0 0
2 5.8 0
3 2.9 5
4 -2.9 5
5 -5.8 0
6 -2.9 -5
7 2.9 -5
8 8.7 5
9 0 10
10 -8.7 5
11 -8.7 -5
12 0 -10
13 8.7 -5
14 5.3 0.8
15 3.3 4.3
16 6.5 -1.3
17 7.2 -2.5
18 7.9 -3.8
19 6.5 1.3
20 7.2 2.5
21 7.9 3.8
22 2 5
23 -2 5
24 4.3 5
25 5.8 5
26 7.2 5
27 2.2 6.3
28 1.4 7.5
29 0.7 8.8
30 -3.3 4.3
31 -5.3 0.8
32 -2.2 6.3
33 -1.4 7.5
34 -0.7 8.8
35 -4.3 5
36 -5.8 5
37 -7.2 5
38 -5.3 -0.8
39 -3.3 -4.3
40 -6.5 1.3
41 -7.2 2.5
42 -7.9 3.8
43 -6.5 -1.3
44 -7.2 -2.5
45 -7.9 -3.8
46 -2 -5
47 2 -5
48 -4.3 -5
49 -5.8 -5
50 -7.2 -5
51 -2.2 -6.3
52 -1.4 -7.5
53 -0.7 -8.8
54 3.3 -4.3
55 5.3 -0.8
56 2.2 -6.3
57 1.4 -7.5
58 0.7 -8.8
59 4.3 -5
60 5.8 -5
61 7.2 -5
62 7.2 0
63 3.6 6.3
64 -3.6 6.3
65 -7.2 0
66 -3.6 -6.3
67 3.6 -6.3
68 10.8 6.3
69 0 12.5
70 -10.8 6.3
71 -10.8 -6.3
72 0 -12.5
73 10.8 -6.3
74 6.7 0.9
75 4.1 5.3
76 8.1 -1.6
77 9 -3.1
78 9.9 -4.7
79 8.1 1.6
80 9 3.1
81 9.9 4.7
82 2.5 6.3
83 -2.5 6.3
84 5.4 6.3
85 7.2 6.3
86 9 6.3
87 2.7 7.8
88 1.8 9.4
89 0.9 10.9
90 -4.1 5.3
91 -6.7 0.9
92 -2.7 7.8
93 -1.8 9.4
94 -0.9 10.9
95 -5.4 6.3
96 -7.2 6.3
97 -9 6.3
98 -6.7 -0.9
99 -4.1 -5.3
100 -8.1 1.6
101 -9 3.1
102 -9.9 4.7
103 -8.1 -1.6
104 -9 -3.1
105 -9.9 -4.7
106 -2.5 -6.3
107 2.5 -6.3
108 -5.4 -6.3
109 -7.2 -6.3
110 -9 -6.3
111 -2.7 -7.8
112 -1.8 -9.4
113 -0.9 -10.9
114 4.1 -5.3
115 6.7 -0.9
116 2.7 -7.8
117 1.8 -9.4
118 0.9 -10.9
119 5.4 -6.3
120 7.2 -6.3
121 9 -6.3
122 9 0
123 4.5 7.8
124 -4.5 7.8
125 -9 0
126 -4.5 -7.8
127 4.5 -7.8
128 13.5 7.8
129 0 15.6
130 -13.5 7.8
131 -13.5 -7.8
132 0 -15.6
133 13.5 -7.8
134 8.3 1.2
135 5.2 6.6
136 10.1 -2
137 11.3 -3.9
138 12.4 -5.9
139 10.1 2
140 11.3 3.9
141 12.4 5.9
142 3.2 7.8
143 -3.2 7.8
144 6.8 7.8
145 9 7.8
146 11.3 7.8
147 3.4 9.8
148 2.3 11.7
149 1.1 13.7
150 -5.2 6.6
151 -8.3 1.2
152 -3.4 9.8
153 -2.3 11.7
154 -1.1 13.7
155 -6.8 7.8
156 -9 7.8
157 -11.3 7.8
158 -8.3 -1.2
159 -5.2 -6.6
160 -10.1 2
161 -11.3 3.9
162 -12.4 5.9
163 -10.1 -2
164 -11.3 -3.9
165 -12.4 -5.9
166 -3.2 -7.8
167 3.2 -7.8
168 -6.8 -7.8
169 -9 -7.8
170 -11.3 -7.8
171 -3.4 -9.8
172 -2.3 -11.7
173 -1.1 -13.7
174 5.2 -6.6
175 8.3 -1.2
176 3.4 -9.8
177 2.3 -11.7
178 1.1 -13.7
179 6.8 -7.8
180 9 -7.8
181 11.3 -7.8
182 11.3 0
183 5.6 9.8
184 -5.6 9.8
185 -11.3 0
186 -5.6 -9.8
187 5.6 -9.8
188 16.9 9.8
189 0 19.5
190 -16.9 9.8
191 -16.9 -9.8
192 0 -19.5
193 16.9 -9.8
194 10.4 1.5
195 6.5 8.3
196 12.7 -2.4
197 14.1 -4.9
198 15.5 -7.3
199 12.7 2.4
200 14.1 4.9
201 15.5 7.3
202 3.9 9.8
203 -3.9 9.8
204 8.5 9.8
205 11.3 9.8
206 14.1 9.8
207 4.2 12.2
208 2.8 14.6
209 1.4 17.1
210 -6.5 8.3
211 -10.4 1.5
212 -4.2 12.2
213 -2.8 14.6
214 -1.4 17.1
215 -8.5 9.8
216 -11.3 9.8
217 -14.1 9.8
218 -10.4 -1.5
219 -6.5 -8.3
220 -12.7 2.4
221 -14.1 4.9
222 -15.5 7.3
223 -12.7 -2.4
224 -14.1 -4.9
225 -15.5 -7.3
226 -3.9 -9.8
227 3.9 -9.8
228 -8.5 -9.8
229 -11.3 -9.8
230 -14.1 -9.8
231 -4.2 -12.2
232 -2.8 -14.6
233 -1.4 -17.1
234 6.5 -8.3
235 10.4 -1.5
236 4.2 -12.2
237 2.8 -14.6
238 1.4 -17.1
239 8.5 -9.8
240 11.3 -9.8
241 14.1 -9.8
DEMAND_SECTION
1 0
2 40
3 40
4 40
5 40
6 40
7 40
8 40
9 40
10 40
11 40
12 40
13 40
14 10
15 10
16 10
17 20
18 10
19 10
20 20
21 10
22 10
23 10
24 10
25 20
26 10
27 10
28 20
29 10
30 10
31 10
32 10
33 20
34 10
35 10
36 20
37 10
38 10
39 10
40 10
41 20
42 10
43 10
44 20
45 10
46 10
47 10
48 10
49 20
50 10
51 10
52 20
53 10
54 10
55 10
56 10
57 20
58 10
59 10
60 20
61 10
62 40
63 40
64 40
65 40
66 40
67 40
68 40
69 40
70 40
71 40
72 40
73 40
74 10
75 10
76 10
77 20
78 10
79 10
80 20
81 10
82 10
83 10
84 10
85 20
86 10
87 10
88 20
89 10
90 10
91 10
92 10
93 20
94 10
95 10
96 20
97 10
98 10
99 10
100 10
101 20
102 10
103 10
104 20
105 10
106 10
107 10
108 10
109 20
110 10
111 10
112 20
113 10
114 10
115 10
116 10
117 20
118 10
119 10
120 20
121 10
122 40
123 40
124 40
125 40
126 40
127 40
128 40
129 40
130 40
131 40
132 40
133 40
134 10
135 10
136 10
137 20
138 10
139 10
140 20
141 10
142 10
143 10
144 10
145 20
146 10
147 10
148 20
149 10
150 10
151 10
152 10
153 20
154 10
155 10
156 20
157 10
158 10
159 10
160 10
161 20
162 10
163 10
164 20
165 10
166 10
167 10
168 10
169 20
170 10
171 10
172 20
173 10
174 10
175 10
176 10
177 20
178 10
179 10
180 20
181 10
182 40
183 40
184 40
185 40
186 40
187 40
188 40
189 40
190 40
191 40
192 40
193 40
194 10
195 10
196 10
197 20
198 10
199 10
200 20
201 10
202 10
203 10
204 10
205 20
206 10
207 10
208 20
209 10
210 10
211 10
212 10
213 20
214 10
215 10
216 20
217 10
218 10
219 10
220 10
221 20
222 10
223 10
224 20
225 10
226 10
227 10
228 10
229 20
230 10
231 10
232 20
233 10
234 10
235 10
236 10
237 20
238 10
239 10
240 20
241 10
DEPOT_SECTION
1
-1
EOF
